p cnf 1553
-23 -485
-24 -488
-25 -491
-26 -494
-27 -497
-28 -500
-29 -503
-30 -506
-31 -509
-32 -512
-33 -515
-34 -518
-35 -521
-36 -524
-37 -527
-38 -530
-39 -533
-40 -536
-41 -539
-42 -542
-43 -545
-44 -548
-45 549
-46 550
-47 551
-48 552
-49 553
-50 554
-51 555
-52 556
-53 557
-54 558
-55 559
-56 560
-57 -24
-57 -25
24 25 57
-58 -26
-58 -27
26 27 58
-59 -28
-59 -29
28 29 59
-60 -30
-60 -31
30 31 60
-61 -32
-61 -33
32 33 61
-62 -34
-62 -35
34 35 62
-63 -36
-63 -37
36 37 63
-64 -38
-64 -39
38 39 64
-65 -40
-65 -41
40 41 65
-66 -42
-66 -43
42 43 66
-67 -44
-67 -45
44 45 67
-68 -46
-68 -47
46 47 68
-69 -48
-69 -49
48 49 69
-70 -50
-70 -51
50 51 70
-71 -52
-71 -53
52 53 71
-72 -54
-72 -55
54 55 72
-73 57
-73 58
-57 -58 73
-74 59
-74 60
-59 -60 74
-75 61
-75 62
-61 -62 75
-76 63
-76 64
-63 -64 76
-77 65
-77 66
-65 -66 77
-78 67
-78 68
-67 -68 78
-79 69
-79 70
-69 -70 79
-80 71
-80 72
-71 -72 80
-81 73
-81 74
-73 -74 81
-82 75
-82 76
-75 -76 82
-83 77
-83 78
-77 -78 83
-84 79
-84 80
-79 -80 84
-85 81
-85 82
-81 -82 85
-86 83
-86 84
-83 -84 86
-87 85
-87 86
-85 -86 87
-88 -56
-88 87
56 -87 88
-89 -23
-89 24
23 -24 89
-90 23
-90 -24
-23 24 90
-91 -89
-91 -90
89 90 91
-92 23
-92 24
-23 -24 92
-93 -23
-93 -91
23 91 93
-94 23
-94 91
-23 -91 94
-95 -93
-95 -94
93 94 95
-96 23
-96 -91
-23 91 96
-97 -92
-97 -96
92 96 97
-98 -24
-98 25
24 -25 98
-99 24
-99 -25
-24 25 99
-100 -98
-100 -99
98 99 100
-101 24
-101 25
-24 -25 101
-102 97
-102 -100
-97 100 102
-103 -97
-103 100
97 -100 103
-104 -102
-104 -103
102 103 104
-105 -97
-105 -100
97 100 105
-106 -101
-106 -105
101 105 106
-107 -25
-107 26
25 -26 107
-108 25
-108 -26
-25 26 108
-109 -107
-109 -108
107 108 109
-110 25
-110 26
-25 -26 110
-111 106
-111 -109
-106 109 111
-112 -106
-112 109
106 -109 112
-113 -111
-113 -112
111 112 113
-114 -106
-114 -109
106 109 114
-115 -110
-115 -114
110 114 115
-116 -26
-116 27
26 -27 116
-117 26
-117 -27
-26 27 117
-118 -116
-118 -117
116 117 118
-119 26
-119 27
-26 -27 119
-120 115
-120 -118
-115 118 120
-121 -115
-121 118
115 -118 121
-122 -120
-122 -121
120 121 122
-123 -115
-123 -118
115 118 123
-124 -119
-124 -123
119 123 124
-125 -27
-125 28
27 -28 125
-126 27
-126 -28
-27 28 126
-127 -125
-127 -126
125 126 127
-128 27
-128 28
-27 -28 128
-129 124
-129 -127
-124 127 129
-130 -124
-130 127
124 -127 130
-131 -129
-131 -130
129 130 131
-132 -124
-132 -127
124 127 132
-133 -128
-133 -132
128 132 133
-134 -28
-134 29
28 -29 134
-135 28
-135 -29
-28 29 135
-136 -134
-136 -135
134 135 136
-137 28
-137 29
-28 -29 137
-138 133
-138 -136
-133 136 138
-139 -133
-139 136
133 -136 139
-140 -138
-140 -139
138 139 140
-141 -133
-141 -136
133 136 141
-142 -137
-142 -141
137 141 142
-143 -29
-143 30
29 -30 143
-144 29
-144 -30
-29 30 144
-145 -143
-145 -144
143 144 145
-146 29
-146 30
-29 -30 146
-147 142
-147 -145
-142 145 147
-148 -142
-148 145
142 -145 148
-149 -147
-149 -148
147 148 149
-150 -142
-150 -145
142 145 150
-151 -146
-151 -150
146 150 151
-152 -30
-152 31
30 -31 152
-153 30
-153 -31
-30 31 153
-154 -152
-154 -153
152 153 154
-155 30
-155 31
-30 -31 155
-156 151
-156 -154
-151 154 156
-157 -151
-157 154
151 -154 157
-158 -156
-158 -157
156 157 158
-159 -151
-159 -154
151 154 159
-160 -155
-160 -159
155 159 160
-161 -31
-161 32
31 -32 161
-162 31
-162 -32
-31 32 162
-163 -161
-163 -162
161 162 163
-164 31
-164 32
-31 -32 164
-165 160
-165 -163
-160 163 165
-166 -160
-166 163
160 -163 166
-167 -165
-167 -166
165 166 167
-168 -160
-168 -163
160 163 168
-169 -164
-169 -168
164 168 169
-170 -32
-170 33
32 -33 170
-171 32
-171 -33
-32 33 171
-172 -170
-172 -171
170 171 172
-173 32
-173 33
-32 -33 173
-174 169
-174 -172
-169 172 174
-175 -169
-175 172
169 -172 175
-176 -174
-176 -175
174 175 176
-177 -169
-177 -172
169 172 177
-178 -173
-178 -177
173 177 178
-179 -33
-179 34
33 -34 179
-180 33
-180 -34
-33 34 180
-181 -179
-181 -180
179 180 181
-182 33
-182 34
-33 -34 182
-183 178
-183 -181
-178 181 183
-184 -178
-184 181
178 -181 184
-185 -183
-185 -184
183 184 185
-186 -178
-186 -181
178 181 186
-187 -182
-187 -186
182 186 187
-188 -34
-188 35
34 -35 188
-189 34
-189 -35
-34 35 189
-190 -188
-190 -189
188 189 190
-191 34
-191 35
-34 -35 191
-192 187
-192 -190
-187 190 192
-193 -187
-193 190
187 -190 193
-194 -192
-194 -193
192 193 194
-195 -187
-195 -190
187 190 195
-196 -191
-196 -195
191 195 196
-197 -35
-197 36
35 -36 197
-198 35
-198 -36
-35 36 198
-199 -197
-199 -198
197 198 199
-200 35
-200 36
-35 -36 200
-201 196
-201 -199
-196 199 201
-202 -196
-202 199
196 -199 202
-203 -201
-203 -202
201 202 203
-204 -196
-204 -199
196 199 204
-205 -200
-205 -204
200 204 205
-206 -36
-206 37
36 -37 206
-207 36
-207 -37
-36 37 207
-208 -206
-208 -207
206 207 208
-209 36
-209 37
-36 -37 209
-210 205
-210 -208
-205 208 210
-211 -205
-211 208
205 -208 211
-212 -210
-212 -211
210 211 212
-213 -205
-213 -208
205 208 213
-214 -209
-214 -213
209 213 214
-215 -37
-215 38
37 -38 215
-216 37
-216 -38
-37 38 216
-217 -215
-217 -216
215 216 217
-218 37
-218 38
-37 -38 218
-219 214
-219 -217
-214 217 219
-220 -214
-220 217
214 -217 220
-221 -219
-221 -220
219 220 221
-222 -214
-222 -217
214 217 222
-223 -218
-223 -222
218 222 223
-224 -38
-224 39
38 -39 224
-225 38
-225 -39
-38 39 225
-226 -224
-226 -225
224 225 226
-227 38
-227 39
-38 -39 227
-228 223
-228 -226
-223 226 228
-229 -223
-229 226
223 -226 229
-230 -228
-230 -229
228 229 230
-231 -223
-231 -226
223 226 231
-232 -227
-232 -231
227 231 232
-233 -39
-233 40
39 -40 233
-234 39
-234 -40
-39 40 234
-235 -233
-235 -234
233 234 235
-236 39
-236 40
-39 -40 236
-237 232
-237 -235
-232 235 237
-238 -232
-238 235
232 -235 238
-239 -237
-239 -238
237 238 239
-240 -232
-240 -235
232 235 240
-241 -236
-241 -240
236 240 241
-242 -40
-242 41
40 -41 242
-243 40
-243 -41
-40 41 243
-244 -242
-244 -243
242 243 244
-245 40
-245 41
-40 -41 245
-246 241
-246 -244
-241 244 246
-247 -241
-247 244
241 -244 247
-248 -246
-248 -247
246 247 248
-249 -241
-249 -244
241 244 249
-250 -245
-250 -249
245 249 250
-251 -41
-251 42
41 -42 251
-252 41
-252 -42
-41 42 252
-253 -251
-253 -252
251 252 253
-254 41
-254 42
-41 -42 254
-255 250
-255 -253
-250 253 255
-256 -250
-256 253
250 -253 256
-257 -255
-257 -256
255 256 257
-258 -250
-258 -253
250 253 258
-259 -254
-259 -258
254 258 259
-260 -42
-260 43
42 -43 260
-261 42
-261 -43
-42 43 261
-262 -260
-262 -261
260 261 262
-263 42
-263 43
-42 -43 263
-264 259
-264 -262
-259 262 264
-265 -259
-265 262
259 -262 265
-266 -264
-266 -265
264 265 266
-267 -259
-267 -262
259 262 267
-268 -263
-268 -267
263 267 268
-269 -43
-269 44
43 -44 269
-270 43
-270 -44
-43 44 270
-271 -269
-271 -270
269 270 271
-272 43
-272 44
-43 -44 272
-273 268
-273 -271
-268 271 273
-274 -268
-274 271
268 -271 274
-275 -273
-275 -274
273 274 275
-276 -268
-276 -271
268 271 276
-277 -272
-277 -276
272 276 277
-278 -44
-278 45
44 -45 278
-279 44
-279 -45
-44 45 279
-280 -278
-280 -279
278 279 280
-281 44
-281 45
-44 -45 281
-282 277
-282 -280
-277 280 282
-283 -277
-283 280
277 -280 283
-284 -282
-284 -283
282 283 284
-285 -277
-285 -280
277 280 285
-286 -281
-286 -285
281 285 286
-287 -45
-287 46
45 -46 287
-288 45
-288 -46
-45 46 288
-289 -287
-289 -288
287 288 289
-290 45
-290 46
-45 -46 290
-291 286
-291 -289
-286 289 291
-292 -286
-292 289
286 -289 292
-293 -291
-293 -292
291 292 293
-294 -286
-294 -289
286 289 294
-295 -290
-295 -294
290 294 295
-296 -46
-296 47
46 -47 296
-297 46
-297 -47
-46 47 297
-298 -296
-298 -297
296 297 298
-299 46
-299 47
-46 -47 299
-300 295
-300 -298
-295 298 300
-301 -295
-301 298
295 -298 301
-302 -300
-302 -301
300 301 302
-303 -295
-303 -298
295 298 303
-304 -299
-304 -303
299 303 304
-305 -47
-305 48
47 -48 305
-306 47
-306 -48
-47 48 306
-307 -305
-307 -306
305 306 307
-308 47
-308 48
-47 -48 308
-309 304
-309 -307
-304 307 309
-310 -304
-310 307
304 -307 310
-311 -309
-311 -310
309 310 311
-312 -304
-312 -307
304 307 312
-313 -308
-313 -312
308 312 313
-314 -48
-314 49
48 -49 314
-315 48
-315 -49
-48 49 315
-316 -314
-316 -315
314 315 316
-317 48
-317 49
-48 -49 317
-318 313
-318 -316
-313 316 318
-319 -313
-319 316
313 -316 319
-320 -318
-320 -319
318 319 320
-321 -313
-321 -316
313 316 321
-322 -317
-322 -321
317 321 322
-323 -49
-323 50
49 -50 323
-324 49
-324 -50
-49 50 324
-325 -323
-325 -324
323 324 325
-326 49
-326 50
-49 -50 326
-327 322
-327 -325
-322 325 327
-328 -322
-328 325
322 -325 328
-329 -327
-329 -328
327 328 329
-330 -322
-330 -325
322 325 330
-331 -326
-331 -330
326 330 331
-332 -50
-332 51
50 -51 332
-333 50
-333 -51
-50 51 333
-334 -332
-334 -333
332 333 334
-335 50
-335 51
-50 -51 335
-336 331
-336 -334
-331 334 336
-337 -331
-337 334
331 -334 337
-338 -336
-338 -337
336 337 338
-339 -331
-339 -334
331 334 339
-340 -335
-340 -339
335 339 340
-341 -51
-341 52
51 -52 341
-342 51
-342 -52
-51 52 342
-343 -341
-343 -342
341 342 343
-344 51
-344 52
-51 -52 344
-345 340
-345 -343
-340 343 345
-346 -340
-346 343
340 -343 346
-347 -345
-347 -346
345 346 347
-348 -340
-348 -343
340 343 348
-349 -344
-349 -348
344 348 349
-350 -52
-350 53
52 -53 350
-351 52
-351 -53
-52 53 351
-352 -350
-352 -351
350 351 352
-353 52
-353 53
-52 -53 353
-354 349
-354 -352
-349 352 354
-355 -349
-355 352
349 -352 355
-356 -354
-356 -355
354 355 356
-357 -349
-357 -352
349 352 357
-358 -353
-358 -357
353 357 358
-359 -53
-359 54
53 -54 359
-360 53
-360 -54
-53 54 360
-361 -359
-361 -360
359 360 361
-362 53
-362 54
-53 -54 362
-363 358
-363 -361
-358 361 363
-364 -358
-364 361
358 -361 364
-365 -363
-365 -364
363 364 365
-366 -358
-366 -361
358 361 366
-367 -362
-367 -366
362 366 367
-368 -54
-368 55
54 -55 368
-369 54
-369 -55
-54 55 369
-370 -368
-370 -369
368 369 370
-371 54
-371 55
-54 -55 371
-372 367
-372 -370
-367 370 372
-373 -367
-373 370
367 -370 373
-374 -372
-374 -373
372 373 374
-375 -367
-375 -370
367 370 375
-376 -371
-376 -375
371 375 376
-377 -55
-377 56
55 -56 377
-378 55
-378 -56
-55 56 378
-379 -377
-379 -378
377 378 379
-380 55
-380 56
-55 -56 380
-381 376
-381 -379
-376 379 381
-382 -376
-382 379
376 -379 382
-383 -381
-383 -382
381 382 383
-384 -376
-384 -379
376 379 384
-385 -380
-385 -384
380 384 385
-386 23
-386 -95
-23 95 386
-387 -23
-387 25
23 -25 387
-388 -386
-388 -387
386 387 388
-389 23
-389 -104
-23 104 389
-390 -23
-390 26
23 -26 390
-391 -389
-391 -390
389 390 391
-392 23
-392 -113
-23 113 392
-393 -23
-393 27
23 -27 393
-394 -392
-394 -393
392 393 394
-395 23
-395 -122
-23 122 395
-396 -23
-396 28
23 -28 396
-397 -395
-397 -396
395 396 397
-398 23
-398 -131
-23 131 398
-399 -23
-399 29
23 -29 399
-400 -398
-400 -399
398 399 400
-401 23
-401 -140
-23 140 401
-402 -23
-402 30
23 -30 402
-403 -401
-403 -402
401 402 403
-404 23
-404 -149
-23 149 404
-405 -23
-405 31
23 -31 405
-406 -404
-406 -405
404 405 406
-407 23
-407 -158
-23 158 407
-408 -23
-408 32
23 -32 408
-409 -407
-409 -408
407 408 409
-410 23
-410 -167
-23 167 410
-411 -23
-411 33
23 -33 411
-412 -410
-412 -411
410 411 412
-413 23
-413 -176
-23 176 413
-414 -23
-414 34
23 -34 414
-415 -413
-415 -414
413 414 415
-416 23
-416 -185
-23 185 416
-417 -23
-417 35
23 -35 417
-418 -416
-418 -417
416 417 418
-419 23
-419 -194
-23 194 419
-420 -23
-420 36
23 -36 420
-421 -419
-421 -420
419 420 421
-422 23
-422 -203
-23 203 422
-423 -23
-423 37
23 -37 423
-424 -422
-424 -423
422 423 424
-425 23
-425 -212
-23 212 425
-426 -23
-426 38
23 -38 426
-427 -425
-427 -426
425 426 427
-428 23
-428 -221
-23 221 428
-429 -23
-429 39
23 -39 429
-430 -428
-430 -429
428 429 430
-431 23
-431 -230
-23 230 431
-432 -23
-432 40
23 -40 432
-433 -431
-433 -432
431 432 433
-434 23
-434 -239
-23 239 434
-435 -23
-435 41
23 -41 435
-436 -434
-436 -435
434 435 436
-437 23
-437 -248
-23 248 437
-438 -23
-438 42
23 -42 438
-439 -437
-439 -438
437 438 439
-440 23
-440 -257
-23 257 440
-441 -23
-441 43
23 -43 441
-442 -440
-442 -441
440 441 442
-443 23
-443 -266
-23 266 443
-444 -23
-444 44
23 -44 444
-445 -443
-445 -444
443 444 445
-446 23
-446 -275
-23 275 446
-447 -23
-447 45
23 -45 447
-448 -446
-448 -447
446 447 448
-449 23
-449 -284
-23 284 449
-450 -23
-450 46
23 -46 450
-451 -449
-451 -450
449 450 451
-452 23
-452 -293
-23 293 452
-453 -23
-453 47
23 -47 453
-454 -452
-454 -453
452 453 454
-455 23
-455 -302
-23 302 455
-456 -23
-456 48
23 -48 456
-457 -455
-457 -456
455 456 457
-458 23
-458 -311
-23 311 458
-459 -23
-459 49
23 -49 459
-460 -458
-460 -459
458 459 460
-461 23
-461 -320
-23 320 461
-462 -23
-462 50
23 -50 462
-463 -461
-463 -462
461 462 463
-464 23
-464 -329
-23 329 464
-465 -23
-465 51
23 -51 465
-466 -464
-466 -465
464 465 466
-467 23
-467 -338
-23 338 467
-468 -23
-468 52
23 -52 468
-469 -467
-469 -468
467 468 469
-470 23
-470 -347
-23 347 470
-471 -23
-471 53
23 -53 471
-472 -470
-472 -471
470 471 472
-473 23
-473 -356
-23 356 473
-474 -23
-474 54
23 -54 474
-475 -473
-475 -474
473 474 475
-476 23
-476 -365
-23 365 476
-477 -23
-477 55
23 -55 477
-478 -476
-478 -477
476 477 478
-479 23
-479 -374
-23 374 479
-480 -23
-480 56
23 -56 480
-481 -479
-481 -480
479 480 481
-482 23
-482 -383
-23 383 482
-483 1
-483 88
-1 -88 483
-484 -88
-484 89
88 -89 484
-485 -483
-485 -484
483 484 485
-486 2
-486 88
-2 -88 486
-487 -88
-487 -388
88 388 487
-488 -486
-488 -487
486 487 488
-489 3
-489 88
-3 -88 489
-490 -88
-490 -391
88 391 490
-491 -489
-491 -490
489 490 491
-492 4
-492 88
-4 -88 492
-493 -88
-493 -394
88 394 493
-494 -492
-494 -493
492 493 494
-495 5
-495 88
-5 -88 495
-496 -88
-496 -397
88 397 496
-497 -495
-497 -496
495 496 497
-498 6
-498 88
-6 -88 498
-499 -88
-499 -400
88 400 499
-500 -498
-500 -499
498 499 500
-501 7
-501 88
-7 -88 501
-502 -88
-502 -403
88 403 502
-503 -501
-503 -502
501 502 503
-504 8
-504 88
-8 -88 504
-505 -88
-505 -406
88 406 505
-506 -504
-506 -505
504 505 506
-507 9
-507 88
-9 -88 507
-508 -88
-508 -409
88 409 508
-509 -507
-509 -508
507 508 509
-510 10
-510 88
-10 -88 510
-511 -88
-511 -412
88 412 511
-512 -510
-512 -511
510 511 512
-513 11
-513 88
-11 -88 513
-514 -88
-514 -415
88 415 514
-515 -513
-515 -514
513 514 515
-516 12
-516 88
-12 -88 516
-517 -88
-517 -418
88 418 517
-518 -516
-518 -517
516 517 518
-519 13
-519 88
-13 -88 519
-520 -88
-520 -421
88 421 520
-521 -519
-521 -520
519 520 521
-522 14
-522 88
-14 -88 522
-523 -88
-523 -424
88 424 523
-524 -522
-524 -523
522 523 524
-525 15
-525 88
-15 -88 525
-526 -88
-526 -427
88 427 526
-527 -525
-527 -526
525 526 527
-528 16
-528 88
-16 -88 528
-529 -88
-529 -430
88 430 529
-530 -528
-530 -529
528 529 530
-531 17
-531 88
-17 -88 531
-532 -88
-532 -433
88 433 532
-533 -531
-533 -532
531 532 533
-534 18
-534 88
-18 -88 534
-535 -88
-535 -436
88 436 535
-536 -534
-536 -535
534 535 536
-537 19
-537 88
-19 -88 537
-538 -88
-538 -439
88 439 538
-539 -537
-539 -538
537 538 539
-540 20
-540 88
-20 -88 540
-541 -88
-541 -442
88 442 541
-542 -540
-542 -541
540 541 542
-543 21
-543 88
-21 -88 543
-544 -88
-544 -445
88 445 544
-545 -543
-545 -544
543 544 545
-546 22
-546 88
-22 -88 546
-547 -88
-547 -448
88 448 547
-548 -546
-548 -547
546 547 548
-549 -88
-549 -451
88 451 549
-550 -88
-550 -454
88 454 550
-551 -88
-551 -457
88 457 551
-552 -88
-552 -460
88 460 552
-553 -88
-553 -463
88 463 553
-554 -88
-554 -466
88 466 554
-555 -88
-555 -469
88 469 555
-556 -88
-556 -472
88 472 556
-557 -88
-557 -475
88 475 557
-558 -88
-558 -478
88 478 558
-559 -88
-559 -481
88 481 559
-560 -88
-560 482
88 -482 560
-561 -56
-561 385
56 -385 561
-562 23
-562 -561
-23 561 562
562
